num_offers = 30;
num_halls = 10;
start=[54,45,26,55,22,33,6,29,19,2,36,33,62,12,72,4,31,73,22,5,30,35,40,31,47,18,8,12,24,29];
end=[100,75,62,69,59,52,63,87,63,22,49,71,65,13,98,38,46,85,50,77,89,70,80,68,74,98,23,53,50,91];
price=[4415,2037,1172,419,3386,1178,3717,793,3187,397,787,2601,131,170,1824,923,1298,259,1197,5904,4878,2752,1173,2956,1486,1093,454,2208,1743,4665];
requirement=[249,415,434,530,277,818,481,284,959,214,871,806,351,730,665,648,845,709,693,544,635,378,622,920,873,620,588,371,415,562];
capacity=[320,912,792,652,822,940,283,879,503,295];
